106361
0,9,28,63,72,44,45,53,79,61,13,69,25,75,66,19,65,35,70,8,76,16,57,73,39,74,81,31,4,18,21,43,67,58,7,27,78,34,29,1,37,15,10,32,26,6,55,50,71,80,59,46,48,33,56,42,2,11,22,54,41,24,68,14,5,60,77,40,51,38,62,82,52,3,49,64,30,23,47,20,17,36,12,0